project/code/prob_instances/factoring_487_383.dimacs
p cnf 769 1831
c Factors encoded in variables 1-9 and 10-18
-19 0
20 0
-102 22 30 0
-102 -22 -30 0
102 22 -30 0
102 -22 30 0
-22 -30 103 0
22 30 -103 0
22 -103 0
30 -103 0
-23 -31 105 0
-23 -103 105 0
-31 -103 105 0
23 31 -105 0
23 103 -105 0
31 103 -105 0
-24 -32 107 0
-24 -105 107 0
-32 -105 107 0
24 32 -107 0
24 105 -107 0
32 105 -107 0
-25 -33 109 0
-25 -107 109 0
-33 -107 109 0
25 33 -109 0
25 107 -109 0
33 107 -109 0
-26 -34 111 0
-26 -109 111 0
-34 -109 111 0
26 34 -111 0
26 109 -111 0
34 109 -111 0
-27 -35 113 0
-27 -111 113 0
-35 -111 113 0
27 35 -113 0
27 111 -113 0
35 111 -113 0
-28 -36 115 0
-28 -113 115 0
-36 -113 115 0
28 36 -115 0
28 113 -115 0
36 113 -115 0
-29 -37 117 0
-29 -115 117 0
-37 -115 117 0
29 37 -117 0
29 115 -117 0
37 115 -117 0
-118 38 117 0
-118 -38 -117 0
118 38 -117 0
118 -38 117 0
-38 -117 119 0
38 117 -119 0
38 -119 0
117 -119 0
-120 40 48 0
-120 -40 -48 0
120 40 -48 0
120 -40 48 0
-40 -48 121 0
40 48 -121 0
40 -121 0
48 -121 0
-41 -49 123 0
-41 -121 123 0
-49 -121 123 0
41 49 -123 0
41 121 -123 0
49 121 -123 0
-42 -50 125 0
-42 -123 125 0
-50 -123 125 0
42 50 -125 0
42 123 -125 0
50 123 -125 0
-43 -51 127 0
-43 -125 127 0
-51 -125 127 0
43 51 -127 0
43 125 -127 0
51 125 -127 0
-44 -52 129 0
-44 -127 129 0
-52 -127 129 0
44 52 -129 0
44 127 -129 0
52 127 -129 0
-45 -53 131 0
-45 -129 131 0
-53 -129 131 0
45 53 -131 0
45 129 -131 0
53 129 -131 0
-46 -54 133 0
-46 -131 133 0
-54 -131 133 0
46 54 -133 0
46 131 -133 0
54 131 -133 0
-47 -55 135 0
-47 -133 135 0
-55 -133 135 0
47 55 -135 0
47 133 -135 0
55 133 -135 0
-136 56 135 0
-136 -56 -135 0
136 56 -135 0
136 -56 135 0
-56 -135 137 0
56 135 -137 0
56 -137 0
135 -137 0
-138 58 66 0
-138 -58 -66 0
138 58 -66 0
138 -58 66 0
-58 -66 139 0
58 66 -139 0
58 -139 0
66 -139 0
-59 -67 141 0
-59 -139 141 0
-67 -139 141 0
59 67 -141 0
59 139 -141 0
67 139 -141 0
-60 -68 143 0
-60 -141 143 0
-68 -141 143 0
60 68 -143 0
60 141 -143 0
68 141 -143 0
-61 -69 145 0
-61 -143 145 0
-69 -143 145 0
61 69 -145 0
61 143 -145 0
69 143 -145 0
-62 -70 147 0
-62 -145 147 0
-70 -145 147 0
62 70 -147 0
62 145 -147 0
70 145 -147 0
-63 -71 149 0
-63 -147 149 0
-71 -147 149 0
63 71 -149 0
63 147 -149 0
71 147 -149 0
-64 -72 151 0
-64 -149 151 0
-72 -149 151 0
64 72 -151 0
64 149 -151 0
72 149 -151 0
-65 -73 153 0
-65 -151 153 0
-73 -151 153 0
65 73 -153 0
65 151 -153 0
73 151 -153 0
-154 74 153 0
-154 -74 -153 0
154 74 -153 0
154 -74 153 0
-74 -153 155 0
74 153 -155 0
74 -155 0
153 -155 0
-156 76 84 0
-156 -76 -84 0
156 76 -84 0
156 -76 84 0
-76 -84 157 0
76 84 -157 0
76 -157 0
84 -157 0
-77 -85 159 0
-77 -157 159 0
-85 -157 159 0
77 85 -159 0
77 157 -159 0
85 157 -159 0
-78 -86 161 0
-78 -159 161 0
-86 -159 161 0
78 86 -161 0
78 159 -161 0
86 159 -161 0
-79 -87 163 0
-79 -161 163 0
-87 -161 163 0
79 87 -163 0
79 161 -163 0
87 161 -163 0
-80 -88 165 0
-80 -163 165 0
-88 -163 165 0
80 88 -165 0
80 163 -165 0
88 163 -165 0
-81 -89 167 0
-81 -165 167 0
-89 -165 167 0
81 89 -167 0
81 165 -167 0
89 165 -167 0
-82 -90 169 0
-82 -167 169 0
-90 -167 169 0
82 90 -169 0
82 167 -169 0
90 167 -169 0
-83 -91 171 0
-83 -169 171 0
-91 -169 171 0
83 91 -171 0
83 169 -171 0
91 169 -171 0
-172 92 171 0
-172 -92 -171 0
172 92 -171 0
172 -92 171 0
-92 -171 173 0
92 171 -173 0
92 -173 0
171 -173 0
-174 116 93 0
-174 -116 -93 0
174 116 -93 0
174 -116 93 0
-116 -93 175 0
116 93 -175 0
116 -175 0
93 -175 0
-118 -94 177 0
-118 -175 177 0
-94 -175 177 0
118 94 -177 0
118 175 -177 0
94 175 -177 0
-119 -95 179 0
-119 -177 179 0
-95 -177 179 0
119 95 -179 0
119 177 -179 0
95 177 -179 0
-180 96 179 0
-180 -96 -179 0
180 96 -179 0
180 -96 179 0
-96 -179 181 0
96 179 -181 0
96 -181 0
179 -181 0
-182 97 181 0
-182 -97 -181 0
182 97 -181 0
182 -97 181 0
-97 -181 183 0
97 181 -183 0
97 -183 0
181 -183 0
-184 98 183 0
-184 -98 -183 0
184 98 -183 0
184 -98 183 0
-98 -183 185 0
98 183 -185 0
98 -185 0
183 -185 0
-186 99 185 0
-186 -99 -185 0
186 99 -185 0
186 -99 185 0
-99 -185 187 0
99 185 -187 0
99 -187 0
185 -187 0
-188 100 187 0
-188 -100 -187 0
188 100 -187 0
188 -100 187 0
-100 -187 189 0
100 187 -189 0
100 -189 0
187 -189 0
-190 101 189 0
-190 -101 -189 0
190 101 -189 0
190 -101 189 0
-101 -189 191 0
101 189 -191 0
101 -191 0
189 -191 0
-192 122 57 0
-192 -122 -57 0
192 122 -57 0
192 -122 57 0
-122 -57 193 0
122 57 -193 0
122 -193 0
57 -193 0
-124 -138 195 0
-124 -193 195 0
-138 -193 195 0
124 138 -195 0
124 193 -195 0
138 193 -195 0
-126 -140 197 0
-126 -195 197 0
-140 -195 197 0
126 140 -197 0
126 195 -197 0
140 195 -197 0
-128 -142 199 0
-128 -197 199 0
-142 -197 199 0
128 142 -199 0
128 197 -199 0
142 197 -199 0
-130 -144 201 0
-130 -199 201 0
-144 -199 201 0
130 144 -201 0
130 199 -201 0
144 199 -201 0
-132 -146 203 0
-132 -201 203 0
-146 -201 203 0
132 146 -203 0
132 201 -203 0
146 201 -203 0
-134 -148 205 0
-134 -203 205 0
-148 -203 205 0
134 148 -205 0
134 203 -205 0
148 203 -205 0
-136 -150 207 0
-136 -205 207 0
-150 -205 207 0
136 150 -207 0
136 205 -207 0
150 205 -207 0
-137 -152 209 0
-137 -207 209 0
-152 -207 209 0
137 152 -209 0
137 207 -209 0
152 207 -209 0
-210 154 209 0
-210 -154 -209 0
210 154 -209 0
210 -154 209 0
-154 -209 211 0
154 209 -211 0
154 -211 0
209 -211 0
-212 155 211 0
-212 -155 -211 0
212 155 -211 0
212 -155 211 0
-155 -211 213 0
155 211 -213 0
155 -213 0
211 -213 0
-214 112 75 0
-214 -112 -75 0
214 112 -75 0
214 -112 75 0
-112 -75 215 0
112 75 -215 0
112 -215 0
75 -215 0
-114 -156 217 0
-114 -215 217 0
-156 -215 217 0
114 156 -217 0
114 215 -217 0
156 215 -217 0
-174 -158 219 0
-174 -217 219 0
-158 -217 219 0
174 158 -219 0
174 217 -219 0
158 217 -219 0
-176 -160 221 0
-176 -219 221 0
-160 -219 221 0
176 160 -221 0
176 219 -221 0
160 219 -221 0
-178 -162 223 0
-178 -221 223 0
-162 -221 223 0
178 162 -223 0
178 221 -223 0
162 221 -223 0
-180 -164 225 0
-180 -223 225 0
-164 -223 225 0
180 164 -225 0
180 223 -225 0
164 223 -225 0
-182 -166 227 0
-182 -225 227 0
-166 -225 227 0
182 166 -227 0
182 225 -227 0
166 225 -227 0
-184 -168 229 0
-184 -227 229 0
-168 -227 229 0
184 168 -229 0
184 227 -229 0
168 227 -229 0
-186 -170 231 0
-186 -229 231 0
-170 -229 231 0
186 170 -231 0
186 229 -231 0
170 229 -231 0
-188 -172 233 0
-188 -231 233 0
-172 -231 233 0
188 172 -233 0
188 231 -233 0
172 231 -233 0
-190 -173 235 0
-190 -233 235 0
-173 -233 235 0
190 173 -235 0
190 233 -235 0
173 233 -235 0
-236 191 235 0
-236 -191 -235 0
236 191 -235 0
236 -191 235 0
-191 -235 237 0
191 235 -237 0
191 -237 0
235 -237 0
-238 104 39 0
-238 -104 -39 0
238 104 -39 0
238 -104 39 0
-104 -39 239 0
104 39 -239 0
104 -239 0
39 -239 0
-106 -120 241 0
-106 -239 241 0
-120 -239 241 0
106 120 -241 0
106 239 -241 0
120 239 -241 0
-108 -192 243 0
-108 -241 243 0
-192 -241 243 0
108 192 -243 0
108 241 -243 0
192 241 -243 0
-110 -194 245 0
-110 -243 245 0
-194 -243 245 0
110 194 -245 0
110 243 -245 0
194 243 -245 0
-214 -196 247 0
-214 -245 247 0
-196 -245 247 0
214 196 -247 0
214 245 -247 0
196 245 -247 0
-216 -198 249 0
-216 -247 249 0
-198 -247 249 0
216 198 -249 0
216 247 -249 0
198 247 -249 0
-218 -200 251 0
-218 -249 251 0
-200 -249 251 0
218 200 -251 0
218 249 -251 0
200 249 -251 0
-220 -202 253 0
-220 -251 253 0
-202 -251 253 0
220 202 -253 0
220 251 -253 0
202 251 -253 0
-222 -204 255 0
-222 -253 255 0
-204 -253 255 0
222 204 -255 0
222 253 -255 0
204 253 -255 0
-224 -206 257 0
-224 -255 257 0
-206 -255 257 0
224 206 -257 0
224 255 -257 0
206 255 -257 0
-226 -208 259 0
-226 -257 259 0
-208 -257 259 0
226 208 -259 0
226 257 -259 0
208 257 -259 0
-228 -210 261 0
-228 -259 261 0
-210 -259 261 0
228 210 -261 0
228 259 -261 0
210 259 -261 0
-230 -212 263 0
-230 -261 263 0
-212 -261 263 0
230 212 -263 0
230 261 -263 0
212 261 -263 0
-232 -213 265 0
-232 -263 265 0
-213 -263 265 0
232 213 -265 0
232 263 -265 0
213 263 -265 0
-266 234 265 0
-266 -234 -265 0
266 234 -265 0
266 -234 265 0
-234 -265 267 0
234 265 -267 0
234 -267 0
265 -267 0
-268 236 267 0
-268 -236 -267 0
268 236 -267 0
268 -236 267 0
-236 -267 269 0
236 267 -269 0
236 -269 0
267 -269 0
-270 237 269 0
-270 -237 -269 0
270 237 -269 0
270 -237 269 0
-237 -269 271 0
237 269 -271 0
237 -271 0
269 -271 0
21 -1 -10 0
-21 1 0
-21 10 0
22 -2 -10 0
-22 2 0
-22 10 0
23 -3 -10 0
-23 3 0
-23 10 0
24 -4 -10 0
-24 4 0
-24 10 0
25 -5 -10 0
-25 5 0
-25 10 0
26 -6 -10 0
-26 6 0
-26 10 0
27 -7 -10 0
-27 7 0
-27 10 0
28 -8 -10 0
-28 8 0
-28 10 0
29 -9 -10 0
-29 9 0
-29 10 0
30 -1 -11 0
-30 1 0
-30 11 0
31 -2 -11 0
-31 2 0
-31 11 0
32 -3 -11 0
-32 3 0
-32 11 0
33 -4 -11 0
-33 4 0
-33 11 0
34 -5 -11 0
-34 5 0
-34 11 0
35 -6 -11 0
-35 6 0
-35 11 0
36 -7 -11 0
-36 7 0
-36 11 0
37 -8 -11 0
-37 8 0
-37 11 0
38 -9 -11 0
-38 9 0
-38 11 0
39 -1 -12 0
-39 1 0
-39 12 0
40 -2 -12 0
-40 2 0
-40 12 0
41 -3 -12 0
-41 3 0
-41 12 0
42 -4 -12 0
-42 4 0
-42 12 0
43 -5 -12 0
-43 5 0
-43 12 0
44 -6 -12 0
-44 6 0
-44 12 0
45 -7 -12 0
-45 7 0
-45 12 0
46 -8 -12 0
-46 8 0
-46 12 0
47 -9 -12 0
-47 9 0
-47 12 0
48 -1 -13 0
-48 1 0
-48 13 0
49 -2 -13 0
-49 2 0
-49 13 0
50 -3 -13 0
-50 3 0
-50 13 0
51 -4 -13 0
-51 4 0
-51 13 0
52 -5 -13 0
-52 5 0
-52 13 0
53 -6 -13 0
-53 6 0
-53 13 0
54 -7 -13 0
-54 7 0
-54 13 0
55 -8 -13 0
-55 8 0
-55 13 0
56 -9 -13 0
-56 9 0
-56 13 0
57 -1 -14 0
-57 1 0
-57 14 0
58 -2 -14 0
-58 2 0
-58 14 0
59 -3 -14 0
-59 3 0
-59 14 0
60 -4 -14 0
-60 4 0
-60 14 0
61 -5 -14 0
-61 5 0
-61 14 0
62 -6 -14 0
-62 6 0
-62 14 0
63 -7 -14 0
-63 7 0
-63 14 0
64 -8 -14 0
-64 8 0
-64 14 0
65 -9 -14 0
-65 9 0
-65 14 0
66 -1 -15 0
-66 1 0
-66 15 0
67 -2 -15 0
-67 2 0
-67 15 0
68 -3 -15 0
-68 3 0
-68 15 0
69 -4 -15 0
-69 4 0
-69 15 0
70 -5 -15 0
-70 5 0
-70 15 0
71 -6 -15 0
-71 6 0
-71 15 0
72 -7 -15 0
-72 7 0
-72 15 0
73 -8 -15 0
-73 8 0
-73 15 0
74 -9 -15 0
-74 9 0
-74 15 0
75 -1 -16 0
-75 1 0
-75 16 0
76 -2 -16 0
-76 2 0
-76 16 0
77 -3 -16 0
-77 3 0
-77 16 0
78 -4 -16 0
-78 4 0
-78 16 0
79 -5 -16 0
-79 5 0
-79 16 0
80 -6 -16 0
-80 6 0
-80 16 0
81 -7 -16 0
-81 7 0
-81 16 0
82 -8 -16 0
-82 8 0
-82 16 0
83 -9 -16 0
-83 9 0
-83 16 0
84 -1 -17 0
-84 1 0
-84 17 0
85 -2 -17 0
-85 2 0
-85 17 0
86 -3 -17 0
-86 3 0
-86 17 0
87 -4 -17 0
-87 4 0
-87 17 0
88 -5 -17 0
-88 5 0
-88 17 0
89 -6 -17 0
-89 6 0
-89 17 0
90 -7 -17 0
-90 7 0
-90 17 0
91 -8 -17 0
-91 8 0
-91 17 0
92 -9 -17 0
-92 9 0
-92 17 0
93 -1 -18 0
-93 1 0
-93 18 0
94 -2 -18 0
-94 2 0
-94 18 0
95 -3 -18 0
-95 3 0
-95 18 0
96 -4 -18 0
-96 4 0
-96 18 0
97 -5 -18 0
-97 5 0
-97 18 0
98 -6 -18 0
-98 6 0
-98 18 0
99 -7 -18 0
-99 7 0
-99 18 0
100 -8 -18 0
-100 8 0
-100 18 0
101 -9 -18 0
-101 9 0
-101 18 0
21 -20 0
-21 20 0
102 -19 0
-102 19 0
238 -19 0
-238 19 0
240 -20 0
-240 20 0
242 -20 0
-242 20 0
244 -19 0
-244 19 0
246 -19 0
-246 19 0
248 -20 0
-248 20 0
250 -19 0
-250 19 0
252 -19 0
-252 19 0
254 -19 0
-254 19 0
256 -20 0
-256 20 0
258 -20 0
-258 20 0
260 -19 0
-260 19 0
262 -20 0
-262 20 0
264 -20 0
-264 20 0
266 -19 0
-266 19 0
268 -20 0
-268 20 0
270 -19 0
-270 19 0
271 -19 0
-271 19 0
274 275 276 0
272 273 -276 0
8 9 -275 0
6 7 -274 0
4 5 -273 0
2 3 -272 0
279 280 281 0
277 278 -281 0
17 18 -280 0
15 16 -279 0
13 14 -278 0
11 12 -277 0
31 103 282 0
-104 23 -282 0
-31 103 283 0
-104 -23 -283 0
31 -103 284 0
-104 -23 -284 0
-31 -103 285 0
-104 23 -285 0
-31 -103 286 0
104 -23 -286 0
31 -103 287 0
104 23 -287 0
-31 103 288 0
104 23 -288 0
31 103 289 0
104 -23 -289 0
32 105 290 0
-106 24 -290 0
-32 105 291 0
-106 -24 -291 0
32 -105 292 0
-106 -24 -292 0
-32 -105 293 0
-106 24 -293 0
-32 -105 294 0
106 -24 -294 0
32 -105 295 0
106 24 -295 0
-32 105 296 0
106 24 -296 0
32 105 297 0
106 -24 -297 0
33 107 298 0
-108 25 -298 0
-33 107 299 0
-108 -25 -299 0
33 -107 300 0
-108 -25 -300 0
-33 -107 301 0
-108 25 -301 0
-33 -107 302 0
108 -25 -302 0
33 -107 303 0
108 25 -303 0
-33 107 304 0
108 25 -304 0
33 107 305 0
108 -25 -305 0
34 109 306 0
-110 26 -306 0
-34 109 307 0
-110 -26 -307 0
34 -109 308 0
-110 -26 -308 0
-34 -109 309 0
-110 26 -309 0
-34 -109 310 0
110 -26 -310 0
34 -109 311 0
110 26 -311 0
-34 109 312 0
110 26 -312 0
34 109 313 0
110 -26 -313 0
35 111 314 0
-112 27 -314 0
-35 111 315 0
-112 -27 -315 0
35 -111 316 0
-112 -27 -316 0
-35 -111 317 0
-112 27 -317 0
-35 -111 318 0
112 -27 -318 0
35 -111 319 0
112 27 -319 0
-35 111 320 0
112 27 -320 0
35 111 321 0
112 -27 -321 0
36 113 322 0
-114 28 -322 0
-36 113 323 0
-114 -28 -323 0
36 -113 324 0
-114 -28 -324 0
-36 -113 325 0
-114 28 -325 0
-36 -113 326 0
114 -28 -326 0
36 -113 327 0
114 28 -327 0
-36 113 328 0
114 28 -328 0
36 113 329 0
114 -28 -329 0
37 115 330 0
-116 29 -330 0
-37 115 331 0
-116 -29 -331 0
37 -115 332 0
-116 -29 -332 0
-37 -115 333 0
-116 29 -333 0
-37 -115 334 0
116 -29 -334 0
37 -115 335 0
116 29 -335 0
-37 115 336 0
116 29 -336 0
37 115 337 0
116 -29 -337 0
49 121 338 0
-122 41 -338 0
-49 121 339 0
-122 -41 -339 0
49 -121 340 0
-122 -41 -340 0
-49 -121 341 0
-122 41 -341 0
-49 -121 342 0
122 -41 -342 0
49 -121 343 0
122 41 -343 0
-49 121 344 0
122 41 -344 0
49 121 345 0
122 -41 -345 0
50 123 346 0
-124 42 -346 0
-50 123 347 0
-124 -42 -347 0
50 -123 348 0
-124 -42 -348 0
-50 -123 349 0
-124 42 -349 0
-50 -123 350 0
124 -42 -350 0
50 -123 351 0
124 42 -351 0
-50 123 352 0
124 42 -352 0
50 123 353 0
124 -42 -353 0
51 125 354 0
-126 43 -354 0
-51 125 355 0
-126 -43 -355 0
51 -125 356 0
-126 -43 -356 0
-51 -125 357 0
-126 43 -357 0
-51 -125 358 0
126 -43 -358 0
51 -125 359 0
126 43 -359 0
-51 125 360 0
126 43 -360 0
51 125 361 0
126 -43 -361 0
52 127 362 0
-128 44 -362 0
-52 127 363 0
-128 -44 -363 0
52 -127 364 0
-128 -44 -364 0
-52 -127 365 0
-128 44 -365 0
-52 -127 366 0
128 -44 -366 0
52 -127 367 0
128 44 -367 0
-52 127 368 0
128 44 -368 0
52 127 369 0
128 -44 -369 0
53 129 370 0
-130 45 -370 0
-53 129 371 0
-130 -45 -371 0
53 -129 372 0
-130 -45 -372 0
-53 -129 373 0
-130 45 -373 0
-53 -129 374 0
130 -45 -374 0
53 -129 375 0
130 45 -375 0
-53 129 376 0
130 45 -376 0
53 129 377 0
130 -45 -377 0
54 131 378 0
-132 46 -378 0
-54 131 379 0
-132 -46 -379 0
54 -131 380 0
-132 -46 -380 0
-54 -131 381 0
-132 46 -381 0
-54 -131 382 0
132 -46 -382 0
54 -131 383 0
132 46 -383 0
-54 131 384 0
132 46 -384 0
54 131 385 0
132 -46 -385 0
55 133 386 0
-134 47 -386 0
-55 133 387 0
-134 -47 -387 0
55 -133 388 0
-134 -47 -388 0
-55 -133 389 0
-134 47 -389 0
-55 -133 390 0
134 -47 -390 0
55 -133 391 0
134 47 -391 0
-55 133 392 0
134 47 -392 0
55 133 393 0
134 -47 -393 0
67 139 394 0
-140 59 -394 0
-67 139 395 0
-140 -59 -395 0
67 -139 396 0
-140 -59 -396 0
-67 -139 397 0
-140 59 -397 0
-67 -139 398 0
140 -59 -398 0
67 -139 399 0
140 59 -399 0
-67 139 400 0
140 59 -400 0
67 139 401 0
140 -59 -401 0
68 141 402 0
-142 60 -402 0
-68 141 403 0
-142 -60 -403 0
68 -141 404 0
-142 -60 -404 0
-68 -141 405 0
-142 60 -405 0
-68 -141 406 0
142 -60 -406 0
68 -141 407 0
142 60 -407 0
-68 141 408 0
142 60 -408 0
68 141 409 0
142 -60 -409 0
69 143 410 0
-144 61 -410 0
-69 143 411 0
-144 -61 -411 0
69 -143 412 0
-144 -61 -412 0
-69 -143 413 0
-144 61 -413 0
-69 -143 414 0
144 -61 -414 0
69 -143 415 0
144 61 -415 0
-69 143 416 0
144 61 -416 0
69 143 417 0
144 -61 -417 0
70 145 418 0
-146 62 -418 0
-70 145 419 0
-146 -62 -419 0
70 -145 420 0
-146 -62 -420 0
-70 -145 421 0
-146 62 -421 0
-70 -145 422 0
146 -62 -422 0
70 -145 423 0
146 62 -423 0
-70 145 424 0
146 62 -424 0
70 145 425 0
146 -62 -425 0
71 147 426 0
-148 63 -426 0
-71 147 427 0
-148 -63 -427 0
71 -147 428 0
-148 -63 -428 0
-71 -147 429 0
-148 63 -429 0
-71 -147 430 0
148 -63 -430 0
71 -147 431 0
148 63 -431 0
-71 147 432 0
148 63 -432 0
71 147 433 0
148 -63 -433 0
72 149 434 0
-150 64 -434 0
-72 149 435 0
-150 -64 -435 0
72 -149 436 0
-150 -64 -436 0
-72 -149 437 0
-150 64 -437 0
-72 -149 438 0
150 -64 -438 0
72 -149 439 0
150 64 -439 0
-72 149 440 0
150 64 -440 0
72 149 441 0
150 -64 -441 0
73 151 442 0
-152 65 -442 0
-73 151 443 0
-152 -65 -443 0
73 -151 444 0
-152 -65 -444 0
-73 -151 445 0
-152 65 -445 0
-73 -151 446 0
152 -65 -446 0
73 -151 447 0
152 65 -447 0
-73 151 448 0
152 65 -448 0
73 151 449 0
152 -65 -449 0
85 157 450 0
-158 77 -450 0
-85 157 451 0
-158 -77 -451 0
85 -157 452 0
-158 -77 -452 0
-85 -157 453 0
-158 77 -453 0
-85 -157 454 0
158 -77 -454 0
85 -157 455 0
158 77 -455 0
-85 157 456 0
158 77 -456 0
85 157 457 0
158 -77 -457 0
86 159 458 0
-160 78 -458 0
-86 159 459 0
-160 -78 -459 0
86 -159 460 0
-160 -78 -460 0
-86 -159 461 0
-160 78 -461 0
-86 -159 462 0
160 -78 -462 0
86 -159 463 0
160 78 -463 0
-86 159 464 0
160 78 -464 0
86 159 465 0
160 -78 -465 0
87 161 466 0
-162 79 -466 0
-87 161 467 0
-162 -79 -467 0
87 -161 468 0
-162 -79 -468 0
-87 -161 469 0
-162 79 -469 0
-87 -161 470 0
162 -79 -470 0
87 -161 471 0
162 79 -471 0
-87 161 472 0
162 79 -472 0
87 161 473 0
162 -79 -473 0
88 163 474 0
-164 80 -474 0
-88 163 475 0
-164 -80 -475 0
88 -163 476 0
-164 -80 -476 0
-88 -163 477 0
-164 80 -477 0
-88 -163 478 0
164 -80 -478 0
88 -163 479 0
164 80 -479 0
-88 163 480 0
164 80 -480 0
88 163 481 0
164 -80 -481 0
89 165 482 0
-166 81 -482 0
-89 165 483 0
-166 -81 -483 0
89 -165 484 0
-166 -81 -484 0
-89 -165 485 0
-166 81 -485 0
-89 -165 486 0
166 -81 -486 0
89 -165 487 0
166 81 -487 0
-89 165 488 0
166 81 -488 0
89 165 489 0
166 -81 -489 0
90 167 490 0
-168 82 -490 0
-90 167 491 0
-168 -82 -491 0
90 -167 492 0
-168 -82 -492 0
-90 -167 493 0
-168 82 -493 0
-90 -167 494 0
168 -82 -494 0
90 -167 495 0
168 82 -495 0
-90 167 496 0
168 82 -496 0
90 167 497 0
168 -82 -497 0
91 169 498 0
-170 83 -498 0
-91 169 499 0
-170 -83 -499 0
91 -169 500 0
-170 -83 -500 0
-91 -169 501 0
-170 83 -501 0
-91 -169 502 0
170 -83 -502 0
91 -169 503 0
170 83 -503 0
-91 169 504 0
170 83 -504 0
91 169 505 0
170 -83 -505 0
94 175 506 0
-176 118 -506 0
-94 175 507 0
-176 -118 -507 0
94 -175 508 0
-176 -118 -508 0
-94 -175 509 0
-176 118 -509 0
-94 -175 510 0
176 -118 -510 0
94 -175 511 0
176 118 -511 0
-94 175 512 0
176 118 -512 0
94 175 513 0
176 -118 -513 0
95 177 514 0
-178 119 -514 0
-95 177 515 0
-178 -119 -515 0
95 -177 516 0
-178 -119 -516 0
-95 -177 517 0
-178 119 -517 0
-95 -177 518 0
178 -119 -518 0
95 -177 519 0
178 119 -519 0
-95 177 520 0
178 119 -520 0
95 177 521 0
178 -119 -521 0
138 193 522 0
-194 124 -522 0
-138 193 523 0
-194 -124 -523 0
138 -193 524 0
-194 -124 -524 0
-138 -193 525 0
-194 124 -525 0
-138 -193 526 0
194 -124 -526 0
138 -193 527 0
194 124 -527 0
-138 193 528 0
194 124 -528 0
138 193 529 0
194 -124 -529 0
140 195 530 0
-196 126 -530 0
-140 195 531 0
-196 -126 -531 0
140 -195 532 0
-196 -126 -532 0
-140 -195 533 0
-196 126 -533 0
-140 -195 534 0
196 -126 -534 0
140 -195 535 0
196 126 -535 0
-140 195 536 0
196 126 -536 0
140 195 537 0
196 -126 -537 0
142 197 538 0
-198 128 -538 0
-142 197 539 0
-198 -128 -539 0
142 -197 540 0
-198 -128 -540 0
-142 -197 541 0
-198 128 -541 0
-142 -197 542 0
198 -128 -542 0
142 -197 543 0
198 128 -543 0
-142 197 544 0
198 128 -544 0
142 197 545 0
198 -128 -545 0
144 199 546 0
-200 130 -546 0
-144 199 547 0
-200 -130 -547 0
144 -199 548 0
-200 -130 -548 0
-144 -199 549 0
-200 130 -549 0
-144 -199 550 0
200 -130 -550 0
144 -199 551 0
200 130 -551 0
-144 199 552 0
200 130 -552 0
144 199 553 0
200 -130 -553 0
146 201 554 0
-202 132 -554 0
-146 201 555 0
-202 -132 -555 0
146 -201 556 0
-202 -132 -556 0
-146 -201 557 0
-202 132 -557 0
-146 -201 558 0
202 -132 -558 0
146 -201 559 0
202 132 -559 0
-146 201 560 0
202 132 -560 0
146 201 561 0
202 -132 -561 0
148 203 562 0
-204 134 -562 0
-148 203 563 0
-204 -134 -563 0
148 -203 564 0
-204 -134 -564 0
-148 -203 565 0
-204 134 -565 0
-148 -203 566 0
204 -134 -566 0
148 -203 567 0
204 134 -567 0
-148 203 568 0
204 134 -568 0
148 203 569 0
204 -134 -569 0
150 205 570 0
-206 136 -570 0
-150 205 571 0
-206 -136 -571 0
150 -205 572 0
-206 -136 -572 0
-150 -205 573 0
-206 136 -573 0
-150 -205 574 0
206 -136 -574 0
150 -205 575 0
206 136 -575 0
-150 205 576 0
206 136 -576 0
150 205 577 0
206 -136 -577 0
152 207 578 0
-208 137 -578 0
-152 207 579 0
-208 -137 -579 0
152 -207 580 0
-208 -137 -580 0
-152 -207 581 0
-208 137 -581 0
-152 -207 582 0
208 -137 -582 0
152 -207 583 0
208 137 -583 0
-152 207 584 0
208 137 -584 0
152 207 585 0
208 -137 -585 0
156 215 586 0
-216 114 -586 0
-156 215 587 0
-216 -114 -587 0
156 -215 588 0
-216 -114 -588 0
-156 -215 589 0
-216 114 -589 0
-156 -215 590 0
216 -114 -590 0
156 -215 591 0
216 114 -591 0
-156 215 592 0
216 114 -592 0
156 215 593 0
216 -114 -593 0
158 217 594 0
-218 174 -594 0
-158 217 595 0
-218 -174 -595 0
158 -217 596 0
-218 -174 -596 0
-158 -217 597 0
-218 174 -597 0
-158 -217 598 0
218 -174 -598 0
158 -217 599 0
218 174 -599 0
-158 217 600 0
218 174 -600 0
158 217 601 0
218 -174 -601 0
160 219 602 0
-220 176 -602 0
-160 219 603 0
-220 -176 -603 0
160 -219 604 0
-220 -176 -604 0
-160 -219 605 0
-220 176 -605 0
-160 -219 606 0
220 -176 -606 0
160 -219 607 0
220 176 -607 0
-160 219 608 0
220 176 -608 0
160 219 609 0
220 -176 -609 0
162 221 610 0
-222 178 -610 0
-162 221 611 0
-222 -178 -611 0
162 -221 612 0
-222 -178 -612 0
-162 -221 613 0
-222 178 -613 0
-162 -221 614 0
222 -178 -614 0
162 -221 615 0
222 178 -615 0
-162 221 616 0
222 178 -616 0
162 221 617 0
222 -178 -617 0
164 223 618 0
-224 180 -618 0
-164 223 619 0
-224 -180 -619 0
164 -223 620 0
-224 -180 -620 0
-164 -223 621 0
-224 180 -621 0
-164 -223 622 0
224 -180 -622 0
164 -223 623 0
224 180 -623 0
-164 223 624 0
224 180 -624 0
164 223 625 0
224 -180 -625 0
166 225 626 0
-226 182 -626 0
-166 225 627 0
-226 -182 -627 0
166 -225 628 0
-226 -182 -628 0
-166 -225 629 0
-226 182 -629 0
-166 -225 630 0
226 -182 -630 0
166 -225 631 0
226 182 -631 0
-166 225 632 0
226 182 -632 0
166 225 633 0
226 -182 -633 0
168 227 634 0
-228 184 -634 0
-168 227 635 0
-228 -184 -635 0
168 -227 636 0
-228 -184 -636 0
-168 -227 637 0
-228 184 -637 0
-168 -227 638 0
228 -184 -638 0
168 -227 639 0
228 184 -639 0
-168 227 640 0
228 184 -640 0
168 227 641 0
228 -184 -641 0
170 229 642 0
-230 186 -642 0
-170 229 643 0
-230 -186 -643 0
170 -229 644 0
-230 -186 -644 0
-170 -229 645 0
-230 186 -645 0
-170 -229 646 0
230 -186 -646 0
170 -229 647 0
230 186 -647 0
-170 229 648 0
230 186 -648 0
170 229 649 0
230 -186 -649 0
172 231 650 0
-232 188 -650 0
-172 231 651 0
-232 -188 -651 0
172 -231 652 0
-232 -188 -652 0
-172 -231 653 0
-232 188 -653 0
-172 -231 654 0
232 -188 -654 0
172 -231 655 0
232 188 -655 0
-172 231 656 0
232 188 -656 0
172 231 657 0
232 -188 -657 0
173 233 658 0
-234 190 -658 0
-173 233 659 0
-234 -190 -659 0
173 -233 660 0
-234 -190 -660 0
-173 -233 661 0
-234 190 -661 0
-173 -233 662 0
234 -190 -662 0
173 -233 663 0
234 190 -663 0
-173 233 664 0
234 190 -664 0
173 233 665 0
234 -190 -665 0
120 239 666 0
-240 106 -666 0
-120 239 667 0
-240 -106 -667 0
120 -239 668 0
-240 -106 -668 0
-120 -239 669 0
-240 106 -669 0
-120 -239 670 0
240 -106 -670 0
120 -239 671 0
240 106 -671 0
-120 239 672 0
240 106 -672 0
120 239 673 0
240 -106 -673 0
192 241 674 0
-242 108 -674 0
-192 241 675 0
-242 -108 -675 0
192 -241 676 0
-242 -108 -676 0
-192 -241 677 0
-242 108 -677 0
-192 -241 678 0
242 -108 -678 0
192 -241 679 0
242 108 -679 0
-192 241 680 0
242 108 -680 0
192 241 681 0
242 -108 -681 0
194 243 682 0
-244 110 -682 0
-194 243 683 0
-244 -110 -683 0
194 -243 684 0
-244 -110 -684 0
-194 -243 685 0
-244 110 -685 0
-194 -243 686 0
244 -110 -686 0
194 -243 687 0
244 110 -687 0
-194 243 688 0
244 110 -688 0
194 243 689 0
244 -110 -689 0
196 245 690 0
-246 214 -690 0
-196 245 691 0
-246 -214 -691 0
196 -245 692 0
-246 -214 -692 0
-196 -245 693 0
-246 214 -693 0
-196 -245 694 0
246 -214 -694 0
196 -245 695 0
246 214 -695 0
-196 245 696 0
246 214 -696 0
196 245 697 0
246 -214 -697 0
198 247 698 0
-248 216 -698 0
-198 247 699 0
-248 -216 -699 0
198 -247 700 0
-248 -216 -700 0
-198 -247 701 0
-248 216 -701 0
-198 -247 702 0
248 -216 -702 0
198 -247 703 0
248 216 -703 0
-198 247 704 0
248 216 -704 0
198 247 705 0
248 -216 -705 0
200 249 706 0
-250 218 -706 0
-200 249 707 0
-250 -218 -707 0
200 -249 708 0
-250 -218 -708 0
-200 -249 709 0
-250 218 -709 0
-200 -249 710 0
250 -218 -710 0
200 -249 711 0
250 218 -711 0
-200 249 712 0
250 218 -712 0
200 249 713 0
250 -218 -713 0
202 251 714 0
-252 220 -714 0
-202 251 715 0
-252 -220 -715 0
202 -251 716 0
-252 -220 -716 0
-202 -251 717 0
-252 220 -717 0
-202 -251 718 0
252 -220 -718 0
202 -251 719 0
252 220 -719 0
-202 251 720 0
252 220 -720 0
202 251 721 0
252 -220 -721 0
204 253 722 0
-254 222 -722 0
-204 253 723 0
-254 -222 -723 0
204 -253 724 0
-254 -222 -724 0
-204 -253 725 0
-254 222 -725 0
-204 -253 726 0
254 -222 -726 0
204 -253 727 0
254 222 -727 0
-204 253 728 0
254 222 -728 0
204 253 729 0
254 -222 -729 0
206 255 730 0
-256 224 -730 0
-206 255 731 0
-256 -224 -731 0
206 -255 732 0
-256 -224 -732 0
-206 -255 733 0
-256 224 -733 0
-206 -255 734 0
256 -224 -734 0
206 -255 735 0
256 224 -735 0
-206 255 736 0
256 224 -736 0
206 255 737 0
256 -224 -737 0
208 257 738 0
-258 226 -738 0
-208 257 739 0
-258 -226 -739 0
208 -257 740 0
-258 -226 -740 0
-208 -257 741 0
-258 226 -741 0
-208 -257 742 0
258 -226 -742 0
208 -257 743 0
258 226 -743 0
-208 257 744 0
258 226 -744 0
208 257 745 0
258 -226 -745 0
210 259 746 0
-260 228 -746 0
-210 259 747 0
-260 -228 -747 0
210 -259 748 0
-260 -228 -748 0
-210 -259 749 0
-260 228 -749 0
-210 -259 750 0
260 -228 -750 0
210 -259 751 0
260 228 -751 0
-210 259 752 0
260 228 -752 0
210 259 753 0
260 -228 -753 0
212 261 754 0
-262 230 -754 0
-212 261 755 0
-262 -230 -755 0
212 -261 756 0
-262 -230 -756 0
-212 -261 757 0
-262 230 -757 0
-212 -261 758 0
262 -230 -758 0
212 -261 759 0
262 230 -759 0
-212 261 760 0
262 230 -760 0
212 261 761 0
262 -230 -761 0
213 263 762 0
-264 232 -762 0
-213 263 763 0
-264 -232 -763 0
213 -263 764 0
-264 -232 -764 0
-213 -263 765 0
-264 232 -765 0
-213 -263 766 0
264 -232 -766 0
213 -263 767 0
264 232 -767 0
-213 263 768 0
264 232 -768 0
213 263 769 0
264 -232 -769 0
